Using license file /home/benedond/gurobi.lic
Using gurobi.env file
Set parameter Threads to value 1
Academic license - for non-commercial use only
Changed value of parameter TimeLimit to 300.0
   Prev: inf  Min: 0.0  Max: inf  Default: inf
Gurobi Optimizer version 9.0.1 build v9.0.1rc0 (linux64)
Optimize a model with 450 rows, 220 columns and 1638 nonzeros
Model fingerprint: 0x9e589141
Variable types: 10 continuous, 210 integer (200 binary)
Coefficient statistics:
  Matrix range     [2e-01, 8e+02]
  Objective range  [3e-03, 7e-01]
  Bounds range     [1e+00, 1e+00]
  RHS range        [1e+00, 8e+02]

---------------------------------------------------------------------------
Multi-objectives: starting optimization with 1 objectives ... 
---------------------------------------------------------------------------
---------------------------------------------------------------------------

Multi-objectives: optimize objective 1 (min avg power cons) ...
---------------------------------------------------------------------------

Optimize a model with 450 rows, 220 columns and 1638 nonzeros
Variable types: 10 continuous, 210 integer (200 binary)
Coefficient statistics:
  Matrix range     [2e-01, 8e+02]
  Objective range  [3e-03, 7e-01]
  Bounds range     [1e+00, 1e+00]
  RHS range        [1e+00, 8e+02]
Presolve removed 315 rows and 156 columns
Presolve time: 0.01s
Presolved: 135 rows, 64 columns, 810 nonzeros
Variable types: 5 continuous, 59 integer (54 binary)
Found heuristic solution: objective 4.7004688

Root relaxation: objective 2.905817e+00, 92 iterations, 0.00 seconds

    Nodes    |    Current Node    |     Objective Bounds      |     Work
 Expl Unexpl |  Obj  Depth IntInf | Incumbent    BestBd   Gap | It/Node Time

     0     0    2.90582    0   29    4.70047    2.90582  38.2%     -    0s
H    0     0                       4.6952188    2.90582  38.1%     -    0s
H    0     0                       4.4928750    2.90582  35.3%     -    0s
H    0     0                       4.2579063    2.90582  31.8%     -    0s
H    0     0                       4.1667813    2.90582  30.3%     -    0s
     0     0    3.07471    0   35    4.16678    3.07471  26.2%     -    0s
     0     0    3.07698    0   33    4.16678    3.07698  26.2%     -    0s
     0     0    3.09253    0   31    4.16678    3.09253  25.8%     -    0s
H    0     0                       4.0781875    3.09253  24.2%     -    0s
     0     0    3.10823    0   29    4.07819    3.10823  23.8%     -    0s
     0     0    3.11785    0   29    4.07819    3.11785  23.5%     -    0s
     0     0    3.12947    0   31    4.07819    3.12947  23.3%     -    0s
     0     0    3.13701    0   34    4.07819    3.13701  23.1%     -    0s
     0     0    3.14604    0   35    4.07819    3.14604  22.9%     -    0s
     0     0    3.15619    0   33    4.07819    3.15619  22.6%     -    0s
     0     0    3.15692    0   34    4.07819    3.15692  22.6%     -    0s
     0     0    3.15699    0   33    4.07819    3.15699  22.6%     -    0s
     0     0    3.15699    0   33    4.07819    3.15699  22.6%     -    0s
     0     2    3.17386    0   33    4.07819    3.17386  22.2%     -    0s
*    7     2               6       4.0538751    3.32193  18.1%   9.3    0s
*   11     1               3       4.0332501    3.78238  6.22%  10.5    0s

Cutting planes:
  Gomory: 3
  Cover: 3
  Implied bound: 2
  Clique: 1
  MIR: 7
  GUB cover: 2
  Mod-K: 1
  RLT: 1
  Relax-and-lift: 7

Explored 14 nodes (443 simplex iterations) in 0.09 seconds
Thread count was 1 (of 4 available processors)

Solution count 7: 4.03325 4.05388 4.07819 ... 4.70047

Optimal solution found (tolerance 1.00e-04)
Best objective 4.033250066126e+00, best bound 4.033250066126e+00, gap 0.0000%

---------------------------------------------------------------------------
Multi-objectives: solved in 0.09 seconds, solution count 7

